cliques=[{0,5,13,34,18,39},{0,1,4,2,3},{0,1,4,2,3},{50,27,42,37,7,12,20,3},{0,4,1,2,3},{0,5,13,34,18,39},{6,5,7,8},{50,27,42,37,7,12,20,3},{6,5,7,8},{9,10,12,11},{24,10,14,45,30,40,35},{9,10,12,11},{50,27,42,37,7,12,20,3},{0,5,13,34,18,39},{24,10,14,45,30,40,35},{16,15,13,14},{47,16,28,43},{9,23,33,17,38,48},{0,5,13,34,18,39},{15,19,25,36},{50,27,42,37,7,12,20,3},{29,4,8,21,44},{24,27,23,29,28,26,25,22},{24,27,23,29,28,26,25,22},{24,10,14,45,30,40,35},{24,27,23,29,28,26,25,22},{24,27,23,29,28,26,25,22},{50,27,42,37,7,12,20,3},{24,27,23,29,28,26,25,22},{24,27,23,29,28,26,25,22},{24,10,14,45,30,40,35},{6,31,1,11,49},{31,30,32},{9,23,33,17,38,48},{0,5,13,34,18,39},{24,10,14,45,30,40,35},{34,37,33,35,36},{50,27,42,37,7,12,20,3},{9,23,33,17,38,48},{0,5,13,34,18,39},{24,10,14,45,30,40,35},{41,42,40,43,44,38,39},{50,27,42,37,7,12,20,3},{47,16,28,43},{41,42,40,43,44,38,39},{24,10,14,45,30,40,35},{47,46,45},{47,16,28,43},{9,23,33,17,38,48},{6,31,1,11,49},{50,27,42,37,7,12,20,3}];
nr_cliques=51;
